SCIP version 5.0.0 [precision: 8 byte] [memory: block] [mode: optimized] [LP solver: NONE] [GitHash: 3bbd232]
Copyright (C) 2002-2017 Konrad-Zuse-Zentrum fuer Informationstechnik Berlin (ZIB)

External codes: 
  Readline EditLine w  GNU library for command line editing (gnu.org/s/readline)
  CppAD 20160000.1     Algorithmic Differentiation of C++ algorithms developed by B. Bell (www.coin-or.org/CppAD)
  ZLIB 1.2.5           General purpose compression library by J. Gailly and M. Adler (zlib.net)
  GMP 6.1.2            GNU Multiple Precision Arithmetic Library developed by T. Granlund (gmplib.org)

user parameter file <scip.set> not found - using default parameters

read problem <../../Split_data/output/statG/8/0_sample_statG.logreg>
============

File name	:	../../Split_data/output/statG/8/0_sample_statG.logreg
Problem name 	:	0_sample_statG
Number of data	:	800
Number of var	:	61
The given data has linear dependence
13 sets of column vector are linearly dependent:

[dim=1] time: 0.036179
[dim=2] time: 0.078985
[dim=3] time: 0.121452
[dim=4] time: 0.161352
[dim=5] time: 0.201441
[dim=6] time: 0.243439
[dim=7] time: 0.287654
[dim=8] time: 0.329571
[dim=9] time: 0.372552
[dim=10] time: 0.416306
[dim=11] time: 0.46798
[dim=12] time: 0.513671
[dim=13] time: 0.561924
[dim=14] time: 0.603746
[dim=15] time: 0.64272
[dim=16] time: 0.681136
[dim=17] time: 0.72727
[dim=18] time: 0.76554
[dim=19] time: 0.803701
[dim=20] time: 0.840021
[dim=21] Time of forward = 0.889735sec.
AIC: 781.53
k: 20

[dim=48] time: 0.113398
[dim=47] time: 0.187252
[dim=46] time: 0.256377
[dim=45] time: 0.330769
[dim=44] time: 0.400872
[dim=43] time: 0.452868
[dim=42] time: 0.511396
[dim=41] time: 0.569101
[dim=40] time: 0.618922
[dim=39] time: 0.681939
[dim=38] time: 0.74104
[dim=37] time: 0.787645
[dim=36] time: 0.832418
[dim=35] time: 0.876581
[dim=34] time: 0.915405
[dim=33] time: 0.961212
[dim=32] time: 0.997477
[dim=31] time: 1.03913
[dim=30] time: 1.08747
[dim=29] time: 1.12477
[dim=28] time: 1.15705
[dim=27] Time of backward = 1.19348sec.
AIC: 790.584
k: 28
